c n orig vars 58
p cnf 155 402
59 -1 0
59 -2 0
-59 1 2 0
60 -3 0
60 -4 0
-60 3 4 0
61 -5 0
61 -6 0
-61 5 6 0
62 -7 0
62 -8 0
-62 7 8 0
63 -9 0
63 -10 0
-63 9 10 0
64 -11 0
64 -12 0
-64 11 12 0
65 -13 0
65 -14 0
-65 13 14 0
66 -15 0
66 -16 0
-66 15 16 0
67 -17 0
67 -18 0
-67 17 18 0
68 -19 0
68 -20 0
-68 19 20 0
69 -21 0
69 -22 0
-69 21 22 0
70 -23 0
70 -24 0
-70 23 24 0
71 -25 0
71 -26 0
-71 25 26 0
72 -27 0
72 -28 0
-72 27 28 0
-73 59 0
-73 60 0
-73 61 0
-73 62 0
-73 63 0
-73 64 0
-73 65 0
-73 66 0
-73 67 0
-73 68 0
-73 69 0
-73 70 0
-73 71 0
-73 72 0
73 -59 -60 -61 -62 -63 -64 -65 -66 -67 -68 -69 -70 -71 -72 0
-73 0
74 -29 0
74 -35 0
74 -41 0
74 -47 0
74 -53 0
-74 29 35 41 47 53 0
75 -30 0
75 -36 0
75 -42 0
75 -48 0
75 -54 0
-75 30 36 42 48 54 0
76 -31 0
76 -37 0
76 -43 0
76 -49 0
76 -55 0
-76 31 37 43 49 55 0
77 -32 0
77 -38 0
77 -44 0
77 -50 0
77 -56 0
-77 32 38 44 50 56 0
78 -33 0
78 -39 0
78 -45 0
78 -51 0
78 -57 0
-78 33 39 45 51 57 0
79 -34 0
79 -40 0
79 -46 0
79 -52 0
79 -58 0
-79 34 40 46 52 58 0
80 29 0
80 30 0
-80 -29 -30 0
81 29 0
81 31 0
-81 -29 -31 0
82 29 0
82 32 0
-82 -29 -32 0
83 29 0
83 33 0
-83 -29 -33 0
84 29 0
84 34 0
-84 -29 -34 0
85 30 0
85 31 0
-85 -30 -31 0
86 30 0
86 32 0
-86 -30 -32 0
87 30 0
87 33 0
-87 -30 -33 0
88 30 0
88 34 0
-88 -30 -34 0
89 31 0
89 32 0
-89 -31 -32 0
90 31 0
90 33 0
-90 -31 -33 0
91 31 0
91 34 0
-91 -31 -34 0
92 32 0
92 33 0
-92 -32 -33 0
93 32 0
93 34 0
-93 -32 -34 0
94 33 0
94 34 0
-94 -33 -34 0
95 35 0
95 36 0
-95 -35 -36 0
96 35 0
96 37 0
-96 -35 -37 0
97 35 0
97 38 0
-97 -35 -38 0
98 35 0
98 39 0
-98 -35 -39 0
99 35 0
99 40 0
-99 -35 -40 0
100 36 0
100 37 0
-100 -36 -37 0
101 36 0
101 38 0
-101 -36 -38 0
102 36 0
102 39 0
-102 -36 -39 0
103 36 0
103 40 0
-103 -36 -40 0
104 37 0
104 38 0
-104 -37 -38 0
105 37 0
105 39 0
-105 -37 -39 0
106 37 0
106 40 0
-106 -37 -40 0
107 38 0
107 39 0
-107 -38 -39 0
108 38 0
108 40 0
-108 -38 -40 0
109 39 0
109 40 0
-109 -39 -40 0
110 41 0
110 42 0
-110 -41 -42 0
111 41 0
111 43 0
-111 -41 -43 0
112 41 0
112 44 0
-112 -41 -44 0
113 41 0
113 45 0
-113 -41 -45 0
114 41 0
114 46 0
-114 -41 -46 0
115 42 0
115 43 0
-115 -42 -43 0
116 42 0
116 44 0
-116 -42 -44 0
117 42 0
117 45 0
-117 -42 -45 0
118 42 0
118 46 0
-118 -42 -46 0
119 43 0
119 44 0
-119 -43 -44 0
120 43 0
120 45 0
-120 -43 -45 0
121 43 0
121 46 0
-121 -43 -46 0
122 44 0
122 45 0
-122 -44 -45 0
123 44 0
123 46 0
-123 -44 -46 0
124 45 0
124 46 0
-124 -45 -46 0
125 47 0
125 48 0
-125 -47 -48 0
126 47 0
126 49 0
-126 -47 -49 0
127 47 0
127 50 0
-127 -47 -50 0
128 47 0
128 51 0
-128 -47 -51 0
129 47 0
129 52 0
-129 -47 -52 0
130 48 0
130 49 0
-130 -48 -49 0
131 48 0
131 50 0
-131 -48 -50 0
132 48 0
132 51 0
-132 -48 -51 0
133 48 0
133 52 0
-133 -48 -52 0
134 49 0
134 50 0
-134 -49 -50 0
135 49 0
135 51 0
-135 -49 -51 0
136 49 0
136 52 0
-136 -49 -52 0
137 50 0
137 51 0
-137 -50 -51 0
138 50 0
138 52 0
-138 -50 -52 0
139 51 0
139 52 0
-139 -51 -52 0
140 53 0
140 54 0
-140 -53 -54 0
141 53 0
141 55 0
-141 -53 -55 0
142 53 0
142 56 0
-142 -53 -56 0
143 53 0
143 57 0
-143 -53 -57 0
144 53 0
144 58 0
-144 -53 -58 0
145 54 0
145 55 0
-145 -54 -55 0
146 54 0
146 56 0
-146 -54 -56 0
147 54 0
147 57 0
-147 -54 -57 0
148 54 0
148 58 0
-148 -54 -58 0
149 55 0
149 56 0
-149 -55 -56 0
150 55 0
150 57 0
-150 -55 -57 0
151 55 0
151 58 0
-151 -55 -58 0
152 56 0
152 57 0
-152 -56 -57 0
153 56 0
153 58 0
-153 -56 -58 0
154 57 0
154 58 0
-154 -57 -58 0
-155 74 0
-155 75 0
-155 76 0
-155 77 0
-155 78 0
-155 79 0
-155 80 0
-155 81 0
-155 82 0
-155 83 0
-155 84 0
-155 85 0
-155 86 0
-155 87 0
-155 88 0
-155 89 0
-155 90 0
-155 91 0
-155 92 0
-155 93 0
-155 94 0
-155 95 0
-155 96 0
-155 97 0
-155 98 0
-155 99 0
-155 100 0
-155 101 0
-155 102 0
-155 103 0
-155 104 0
-155 105 0
-155 106 0
-155 107 0
-155 108 0
-155 109 0
-155 110 0
-155 111 0
-155 112 0
-155 113 0
-155 114 0
-155 115 0
-155 116 0
-155 117 0
-155 118 0
-155 119 0
-155 120 0
-155 121 0
-155 122 0
-155 123 0
-155 124 0
-155 125 0
-155 126 0
-155 127 0
-155 128 0
-155 129 0
-155 130 0
-155 131 0
-155 132 0
-155 133 0
-155 134 0
-155 135 0
-155 136 0
-155 137 0
-155 138 0
-155 139 0
-155 140 0
-155 141 0
-155 142 0
-155 143 0
-155 144 0
-155 145 0
-155 146 0
-155 147 0
-155 148 0
-155 149 0
-155 150 0
-155 151 0
-155 152 0
-155 153 0
-155 154 0
155 -74 -75 -76 -77 -78 -79 -80 -81 -82 -83 -84 -85 -86 -87 -88 -89 -90 -91 -92 -93 -94 -95 -96 -97 -98 -99 -100 -101 -102 -103 -104 -105 -106 -107 -108 -109 -110 -111 -112 -113 -114 -115 -116 -117 -118 -119 -120 -121 -122 -123 -124 -125 -126 -127 -128 -129 -130 -131 -132 -133 -134 -135 -136 -137 -138 -139 -140 -141 -142 -143 -144 -145 -146 -147 -148 -149 -150 -151 -152 -153 -154 0
-155 0
